p edge 250
e 0 1
e 0 6
e 0 30
e 0 59
e 0 83
e 1 2
e 1 27
e 1 30
e 1 32
e 1 49
e 1 59
e 1 211
e 2 6
e 2 7
e 2 19
e 2 20
e 2 27
e 2 30
e 2 85
e 2 89
e 2 121
e 2 208
e 2 243
e 3 5
e 3 17
e 3 24
e 3 31
e 3 34
e 3 44
e 4 8
e 4 12
e 4 15
e 4 20
e 4 25
e 4 26
e 5 10
e 5 28
e 5 29
e 5 33
e 5 44
e 5 210
e 6 30
e 6 85
e 7 27
e 7 208
e 7 209
e 8 9
e 8 14
e 8 15
e 8 26
e 8 29
e 9 12
e 9 13
e 9 14
e 9 26
e 9 114
e 9 143
e 10 13
e 10 21
e 10 22
e 10 29
e 10 33
e 11 17
e 11 19
e 11 24
e 11 31
e 11 208
e 11 213
e 12 25
e 12 26
e 12 114
e 13 14
e 13 22
e 13 29
e 13 120
e 13 143
e 14 29
e 15 20
e 15 28
e 15 210
e 16 18
e 16 27
e 16 32
e 16 209
e 16 211
e 16 212
e 17 23
e 17 31
e 17 73
e 17 213
e 17 220
e 18 23
e 18 50
e 18 211
e 18 212
e 18 236
e 19 20
e 19 24
e 19 208
e 19 210
e 20 25
e 20 89
e 20 210
e 21 22
e 21 82
e 22 82
e 22 120
e 23 212
e 23 220
e 23 236
e 24 31
e 24 210
e 25 114
e 27 32
e 27 209
e 28 29
e 28 210
e 32 211
e 33 36
e 33 38
e 33 42
e 33 44
e 33 76
e 33 77
e 33 198
e 33 238
e 34 44
e 34 73
e 34 220
e 35 39
e 35 69
e 35 74
e 35 197
e 36 38
e 36 71
e 36 75
e 36 197
e 36 198
e 37 38
e 37 72
e 37 75
e 37 217
e 37 218
e 38 42
e 38 75
e 38 218
e 38 238
e 39 74
e 40 42
e 40 43
e 40 70
e 40 220
e 41 219
e 42 43
e 42 70
e 42 77
e 42 217
e 42 218
e 42 238
e 43 76
e 43 77
e 43 216
e 43 220
e 44 76
e 44 216
e 44 220
e 45 69
e 45 71
e 45 74
e 45 220
e 46 228
e 46 229
e 46 230
e 46 236
e 47 215
e 47 221
e 47 228
e 48 50
e 48 51
e 48 52
e 48 53
e 48 138
e 49 50
e 49 51
e 49 59
e 49 61
e 49 211
e 50 51
e 50 52
e 50 54
e 50 58
e 50 211
e 50 236
e 51 60
e 51 61
e 51 138
e 52 53
e 52 54
e 53 54
e 53 57
e 53 236
e 54 57
e 54 58
e 55 56
e 55 58
e 56 57
e 56 58
e 56 214
e 56 236
e 57 58
e 57 236
e 58 214
e 58 236
e 59 60
e 59 61
e 59 83
e 59 138
e 60 61
e 60 138
e 62 63
e 62 64
e 62 65
e 62 101
e 62 107
e 63 64
e 63 107
e 63 110
e 63 139
e 64 65
e 64 110
e 65 100
e 65 110
e 65 122
e 66 140
e 66 142
e 66 147
e 66 149
e 66 206
e 67 93
e 67 94
e 67 99
e 67 109
e 67 118
e 67 122
e 67 200
e 67 244
e 68 78
e 68 92
e 68 93
e 68 94
e 68 95
e 68 159
e 68 248
e 69 71
e 69 74
e 69 197
e 70 217
e 70 220
e 70 239
e 71 75
e 71 197
e 71 220
e 72 75
e 72 217
e 72 220
e 72 239
e 73 220
e 75 220
e 76 77
e 76 216
e 78 92
e 78 111
e 78 159
e 79 117
e 79 144
e 79 148
e 79 247
e 80 92
e 80 93
e 80 111
e 80 113
e 80 118
e 80 142
e 81 124
e 81 125
e 81 150
e 81 152
e 82 120
e 82 167
e 83 84
e 83 85
e 83 138
e 84 85
e 84 138
e 84 162
e 84 170
e 85 86
e 85 170
e 85 243
e 86 87
e 86 129
e 86 168
e 86 170
e 86 180
e 86 243
e 87 129
e 87 243
e 88 129
e 88 180
e 88 202
e 88 246
e 88 249
e 89 96
e 89 114
e 89 121
e 90 91
e 90 159
e 90 184
e 90 248
e 91 159
e 91 182
e 91 183
e 92 93
e 92 95
e 92 111
e 93 94
e 93 95
e 93 118
e 94 200
e 94 205
e 96 97
e 96 114
e 96 121
e 96 161
e 97 98
e 97 114
e 97 115
e 97 161
e 97 246
e 98 114
e 98 144
e 98 246
e 99 100
e 99 109
e 99 122
e 100 101
e 100 108
e 100 109
e 100 122
e 101 107
e 101 108
e 101 132
e 102 103
e 102 104
e 102 107
e 103 104
e 103 107
e 103 164
e 104 105
e 104 164
e 105 106
e 105 164
e 106 134
e 106 158
e 107 132
e 107 136
e 107 158
e 108 109
e 108 130
e 108 131
e 108 132
e 109 130
e 109 244
e 110 118
e 110 122
e 110 139
e 110 149
e 111 113
e 111 117
e 111 148
e 111 159
e 112 120
e 112 143
e 112 156
e 112 157
e 112 160
e 112 167
e 113 124
e 113 142
e 113 156
e 113 160
e 114 115
e 114 143
e 114 144
e 114 148
e 116 145
e 116 163
e 116 196
e 116 245
e 117 148
e 117 159
e 118 122
e 118 142
e 118 149
e 119 191
e 119 192
e 119 193
e 119 194
e 120 143
e 120 167
e 121 161
e 121 243
e 123 130
e 123 131
e 123 190
e 123 191
e 124 125
e 124 142
e 124 152
e 124 157
e 124 160
e 125 137
e 125 146
e 125 157
e 126 139
e 126 149
e 126 203
e 126 206
e 127 144
e 127 201
e 127 202
e 127 246
e 127 247
e 128 189
e 128 190
e 128 191
e 129 161
e 129 180
e 129 243
e 129 246
e 130 131
e 130 190
e 131 132
e 131 136
e 131 191
e 132 136
e 133 134
e 133 135
e 133 136
e 133 158
e 134 135
e 134 145
e 134 158
e 135 136
e 135 145
e 135 195
e 136 191
e 136 195
e 137 146
e 137 155
e 137 240
e 138 162
e 138 163
e 138 245
e 139 149
e 140 147
e 140 152
e 140 166
e 140 242
e 141 157
e 141 165
e 141 167
e 143 148
e 144 148
e 144 246
e 144 247
e 145 195
e 146 150
e 146 151
e 146 155
e 147 166
e 147 203
e 147 206
e 148 156
e 149 206
e 150 151
e 150 152
e 151 152
e 151 153
e 151 155
e 152 153
e 152 154
e 153 154
e 153 155
e 154 155
e 154 242
e 155 240
e 155 242
e 156 160
e 157 165
e 157 167
e 158 164
e 159 182
e 159 247
e 159 248
e 161 246
e 162 170
e 162 172
e 162 245
e 163 245
e 165 167
e 166 240
e 166 241
e 166 242
e 168 169
e 168 170
e 168 171
e 168 180
e 168 199
e 168 204
e 169 171
e 169 172
e 169 173
e 169 204
e 170 171
e 171 172
e 172 173
e 172 174
e 172 194
e 172 245
e 173 174
e 173 177
e 173 178
e 173 204
e 174 175
e 174 177
e 174 185
e 174 189
e 174 193
e 174 194
e 175 176
e 175 177
e 175 185
e 176 177
e 176 178
e 176 179
e 176 182
e 177 178
e 178 179
e 178 199
e 178 204
e 178 249
e 179 201
e 179 249
e 180 199
e 180 249
e 181 188
e 181 226
e 181 227
e 181 231
e 181 236
e 182 183
e 182 185
e 182 201
e 182 247
e 183 184
e 183 185
e 184 185
e 184 186
e 184 187
e 184 248
e 185 186
e 186 187
e 186 189
e 186 244
e 187 200
e 187 205
e 187 244
e 187 248
e 188 226
e 188 232
e 189 190
e 189 191
e 189 193
e 189 244
e 190 191
e 190 244
e 191 192
e 191 193
e 191 195
e 191 196
e 192 194
e 192 196
e 193 194
e 194 196
e 194 245
e 195 196
e 196 245
e 197 198
e 199 204
e 199 249
e 200 205
e 200 244
e 201 202
e 201 247
e 201 249
e 202 249
e 203 206
e 205 248
e 207 225
e 207 235
e 207 236
e 208 209
e 208 213
e 209 212
e 209 213
e 212 213
e 214 215
e 214 222
e 214 227
e 214 236
e 215 221
e 215 222
e 215 228
e 215 236
e 216 220
e 217 218
e 217 239
e 220 236
e 220 239
e 221 222
e 221 223
e 221 224
e 221 228
e 222 224
e 222 227
e 222 236
e 223 224
e 223 228
e 223 229
e 223 233
e 223 234
e 224 234
e 224 236
e 225 230
e 225 233
e 225 234
e 225 235
e 225 236
e 226 227
e 226 232
e 226 236
e 227 236
e 228 229
e 228 236
e 229 230
e 229 233
e 230 233
e 230 236
e 231 236
e 232 236
e 233 234
e 234 235
e 234 236
e 235 236
e 236 237
e 240 241
e 241 242
c k 2
